\ENCODING=ISO-8859-1
\Problem name: IloCplex

Maximize
 obj1: 0.46428570151329 x1 + 0.46428570151329 x2 + 0.25 x3 + 0.25 x4
       + 0.28571429848671 x5 + 0.214285716414452 x6 + 0.535714268684387 x7
       + 0.178571432828903 x8 + 0.28571429848671 x9 + 0.571428596973419 x10
Subject To
 c1: 69 x1 + 67 x2 + 38 x3 + 36 x4 + 45 x5 + 33 x6 + 79 x7 + 27 x8 + 44 x9
     + 84 x10 + 42 x11 + 57 x12 + 93 x13 + 90 x14 + 86 x15 + 92 x16 + 46 x17
     <= 150
Bounds
      x1 >= 0
      x2 >= 0
      x3 >= 0
      x4 >= 0
      x5 >= 0
      x6 >= 0
      x7 >= 0
      x8 >= 0
      x9 >= 0
      x10 >= 0
      x11 >= 0
      x12 >= 0
      x13 >= 0
      x14 >= 0
      x15 >= 0
      x16 >= 0
      x17 >= 0
Generals
 x1  x2  x3  x4  x5  x6  x7  x8  x9  x10  x11  x12  x13  x14  x15  x16  x17 
End
